mapa = [|
         9,9,9,9,9,9,9,9,9|
         9,8,8,8,8,8,8,8,9|
         9,8,8,8,4,8,8,8,9|
         9,8,1,9,9,9,1,8,9|
         9,8,8,8,8,8,8,8,9|
         9,9,9,9,9,9,9,9,9|];
dimx = 6;
dimy = 9;
filav = 5;
colav = 5;
from = [1,2,3,4,5,6,7,8,10,11,12,13,14,15,16,17,19,20,21,22,23,24,25,26,28,29,30,31,32,33,34,35,37,38,39,40,41,42,43,44,1,2,3,4,5,6,7,8,10,11,12,13,14,15,16,17,19,20,21,22,23,24,25,26,28,29,30,31,32,33,34,35,37,38,39,40,41,42,43,44,9,18,27,36,45,46,47,48,49,50,51,52,53];
to = [2,3,4,5,6,7,8,9,11,12,13,14,15,16,17,18,20,21,22,23,24,25,26,27,29,30,31,32,33,34,35,36,38,39,40,41,42,43,44,45,10,11,12,13,14,15,16,17,19,20,21,22,23,24,25,26,28,29,30,31,32,33,34,35,37,38,39,40,41,42,43,44,46,47,48,49,50,51,52,53,18,27,36,45,54,47,48,49,50,51,52,53,54];
